[runlim] version:		1.10
[runlim] time limit:		311040000 seconds
[runlim] real time limit:	600 seconds
[runlim] space limit:		14000 MB
[runlim] argv[0]:		python3
[runlim] argv[1]:		-u
[runlim] argv[2]:		mip.py
[runlim] argv[3]:		TUD200.5
[runlim] start:			Tue Jan 20 15:04:10 2026
[runlim] main pid:		75561
Building MIP model...
[runlim] sample:		10.0 time, 10.3 real, 31.8 MB
[runlim] sample:		20.0 time, 20.3 real, 34.9 MB
[runlim] sample:		30.0 time, 30.3 real, 36.5 MB
[runlim] sample:		40.0 time, 40.3 real, 38.8 MB
[runlim] sample:		50.0 time, 50.3 real, 41.3 MB
[runlim] sample:		60.0 time, 60.3 real, 44.8 MB
[runlim] sample:		69.9 time, 70.3 real, 48.1 MB
[runlim] sample:		79.9 time, 80.3 real, 48.8 MB
[runlim] sample:		89.9 time, 90.3 real, 52.7 MB
Build time: 94.58s
Solving MIP (minimizing number of labels)...
Version identifier: 22.1.1.0 | 2022-11-28 | 9160aff4d
CPXPARAM_Read_DataCheck                          1
Legacy callback                                  i
Tried aggregator 2 times.
[runlim] sample:		108.4 time, 100.3 real, 243.9 MB
Infeasibility row 'c69':  0  = 1.
Presolve time = 6.32 sec. (12226.66 ticks)

Root node processing (before b&c):
  Real time             =    6.35 sec. (12255.87 ticks)
Parallel b&c, 12 threads:
  Real time             =    0.00 sec. (0.00 ticks)
  Sync time (average)   =    0.00 sec.
  Wait time (average)   =    0.00 sec.
                          ------------
Total (root+branch&cut) =    6.35 sec. (12255.87 ticks)
CPLEX Error  1217: No solution exists.
No solution found.
[runlim] end:			Tue Jan 20 15:05:51 2026
[runlim] status:		ok
[runlim] result:		0
[runlim] children:		0
[runlim] real:			101.30 seconds
[runlim] time:			109.47 seconds
[runlim] space:			258.3 MB
[runlim] samples:		1010
